StudentsNr = 10;
InstructorsNr = 87;
DaysNr = 1;
SlotsPerDay = 20;
AvailabilitySlotsLenght = 20;
RoomNr = 2;
ProgrammNr = 2;
DegreeNr = 3;
RolesNr = 2;
CoursesNr = 9;
InstructorsProgramm = [{2}, {1}, {1}, {1}, {1}, {1}, {1}, {1, 2}, {2}, {1, 2}, {1, 2}, {2}, {1}, {2}, {1}, {1, 2}, {2}, {2}, {1, 2}, {1}, {1}, {1, 2}, {1}, {1}, {1}, {1}, {1}, {1}, {1}, {1, 2}, {2}, {1}, {1}, {1}, {1}, {2}, {2}, {1}, {1, 2}, {2}, {1}, {2}, {1}, {1, 2}, {1, 2}, {1}, {2}, {1}, {1, 2}, {1}, {1}, {2}, {1}, {1}, {1}, {2}, {2}, {1}, {2}, {1}, {2}, {1, 2}, {1, 2}, {1}, {2}, {2}, {1}, {1, 2}, {1}, {1}, {1, 2}, {1, 2}, {1, 2}, {2}, {2}, {1}, {2}, {1}, {1, 2}, {1, 2}, {1, 2}, {2}, {1}, {1}, {2}, {2}, {1, 2}];
InstructorRolesPerProgramm = [|{3, 4, 10, 11, 15, 16, 20, 21, 22, 24, 25, 27, 29, 33, 34, 41, 43, 50, 60, 62, 63, 64, 67, 69, 70, 73, 79}, {3, 4, 6, 22, 24, 28, 32, 38, 43, 46, 48, 49, 50, 55, 58, 60, 62, 64, 68, 69, 71, 76, 78, 83}|{10, 11, 12, 16, 17, 22, 42, 52, 59, 62, 63, 73, 74, 77, 79, 85, 86}, {22, 31, 37, 40, 47, 49, 56, 59, 61, 62, 66, 68, 71, 74, 75, 77, 82, 85, 86}|];
InstructorsAvailability = [|0, |1, |1, |0, |0, |0, |1, |0, |1, |1, |0, |0, |1, |0, |0, |0, |0, |0, |0, |0, |1, |0, |1, |0, |0, |1, |0, |0, |0, |1, |1, |0, |0, |0, |1, |0, |0, |0, |1, |1, |0, |0, |0, |0, |1, |0, |1, |0, |0, |1, |0, |1, |0, |1, |1, |0, |0, |1, |0, |1, |0, |1, |1, |0, |0, |1, |1, |1, |0, |0, |1, |0, |1, |1, |0, |0, |0, |0, |1, |0, |0, |0, |1, |0, |0, |1, |0|];
StudentsProgramm = [2, 2, 2, 2, 2, 1, 2, 2, 2, 1];
StudentsDegree = [1, 2, 1, 2, 1, 1, 3, 2, 3, 3];
StudentsSupervisorId = [18, 56, 82, 8, 63, 24, 11, 68, 42, 69];
StudentsCourseIds = [{2, 4, 5, 6, 7, 8, 9}, {4, 5, 6, 7}, {1, 2, 3, 4, 6, 8, 9}, {3, 4, 5, 6}, {1, 2, 3, 4, 5, 8, 9}, {1, 3, 4, 5, 6, 7, 8}, {}, {6, 7, 8, 9}, {}, {}];
StudentsAvailability = [|0, |0, |0, |1, |0, |1, |1, |0, |0, |0|];
TheoryticalMinCard = [0, 0, 0, 0, 0, 0, 0, 0, 0, 0];
CoursesInstructorIds = [{1, 2, 3, 4, 5, 6, 7, 9, 10, 12, 13, 14, 15, 18, 22, 23, 25, 26, 27, 29, 30, 34, 35, 36, 37, 40, 42, 43, 44, 45, 46, 48, 49, 51, 56, 57, 60, 61, 62, 63, 64, 65, 67, 72, 73, 76, 80, 81, 82, 86, 87}, {1, 2, 3, 4, 6, 8, 9, 10, 11, 13, 16, 18, 19, 20, 21, 23, 28, 29, 31, 32, 33, 34, 39, 40, 42, 43, 45, 46, 47, 48, 49, 52, 55, 57, 58, 59, 60, 62, 64, 66, 71, 72, 73, 74, 76, 78, 81, 82, 83, 87}, {1, 3, 7, 8, 9, 12, 14, 17, 18, 19, 20, 21, 24, 28, 30, 35, 36, 38, 39, 46, 47, 48, 51, 56, 57, 59, 61, 62, 63, 64, 66, 67, 68, 69, 70, 72, 76, 77, 80, 84}, {2, 3, 6, 9, 11, 13, 14, 15, 16, 17, 18, 21, 22, 23, 24, 26, 28, 30, 33, 34, 35, 36, 37, 38, 41, 42, 45, 46, 48, 49, 51, 52, 53, 54, 55, 57, 58, 61, 62, 63, 64, 65, 66, 67, 68, 69, 70, 73, 74, 75, 76, 77, 78, 79, 81, 82, 84, 85}, {4, 6, 8, 9, 12, 13, 15, 16, 17, 18, 19, 20, 22, 24, 27, 30, 31, 33, 48, 50, 53, 54, 56, 57, 58, 60, 62, 63, 65, 66, 72, 77, 78, 81, 84, 87}, {1, 10, 13, 14, 16, 20, 21, 22, 23, 28, 29, 30, 31, 32, 34, 40, 41, 45, 46, 51, 54, 58, 59, 61, 68, 72, 86, 87}, {4, 6, 8, 10, 11, 12, 13, 14, 16, 18, 19, 21, 23, 24, 26, 27, 29, 30, 32, 33, 34, 35, 36, 38, 43, 44, 45, 48, 49, 51, 52, 53, 54, 55, 56, 58, 59, 63, 64, 65, 67, 69, 74, 75, 78, 80, 81, 82, 83, 85, 86}, {5, 7, 12, 13, 17, 18, 24, 25, 27, 28, 29, 30, 33, 34, 35, 39, 41, 43, 45, 49, 51, 53, 54, 55, 56, 58, 61, 63, 66, 69, 70, 72, 73, 82, 86}, {23, 45, 59}];
RolesDemands = [3, 7];
RolesContinuity = [];
ExamLen = [2, 1, 2, 1, 2, 2, 1, 1, 1, 1];
LunchTsMinLen = 1;
LunchStarts = [10..13];
SupervisorAvailable = 0;
OptimalLunchLenght = [1, 1];
OptimalStartTs = [0, 0];
OptimalFinishTs = [0, 20];
MinimizeRooms = 100;
RolesSoftContinuity = [|1, 2|3, 2|];
SameDegreeInRoom = 0;
Mergeability = 0;
